WARNING: for repeatability, setting FPU to use double precision
============================[ Problem Statistics ]=============================
|                                                                             |
|  Number of variables:            50                                         |
|  Number of clauses:             218                                         |
|  Parse time:                   0.00 s                                       |
|                                                                             |
============================[ Search Statistics ]==============================
| Conflicts |          ORIGINAL         |          LEARNT          | Progress |
|           |    Vars  Clauses Literals |    Limit  Clauses Lit/Cl |          |
===============================================================================
===============================================================================
restarts              : 1
conflicts             : 5              (30488 /sec)
decisions             : 12             (0.00 % random) (73171 /sec)
propagations          : 127            (774390 /sec)
conflict literals     : 23             (11.54 % deleted)
Memory used           : 20.00 MB
CPU time              : 0.000164 s

SATISFIABLE
